5
1
5
1  0  0  0  0
0  1  1  1  0.75
0  1  1  2  -0.25
0  1  1  4  -0.25
0  1  2  4  0.25
0  1  2  5  0.25
0  1  3  4  0.25
0  1  3  5  -0.25
1  1  1  1  1
2  1  1  2  -1
2  1  2  2  2
3  1  1  3  -1
3  1  3  3  2
4  1  1  4  -1
4  1  4  4  2
5  1  1  5  -1
5  1  5  5  2